Version identifier: 22.1.0.0 | 2022-03-09 | 1a383f8ce
CPXPARAM_Threads                                 1
CPXPARAM_MIP_Strategy_VariableSelect             3
CPXPARAM_TimeLimit                               599.99234296700001
Tried aggregator 1 time.
MIP Presolve eliminated 11 rows and 0 columns.
MIP Presolve modified 1 coefficients.
Reduced MIP has 1814 rows, 7500 columns, and 79820 nonzeros.
Reduced MIP has 7500 binaries, 0 generals, 0 SOSs, and 0 indicators.
Presolve time = 0.05 sec. (33.71 ticks)
Probing time = 0.01 sec. (4.17 ticks)
Tried aggregator 1 time.
Detecting symmetries...
Reduced MIP has 1814 rows, 7500 columns, and 79820 nonzeros.
Reduced MIP has 7500 binaries, 0 generals, 0 SOSs, and 0 indicators.
Presolve time = 0.06 sec. (42.89 ticks)
Probing time = 0.01 sec. (4.17 ticks)
Clique table members: 898.
MIP emphasis: balance optimality and feasibility.
MIP search method: dynamic search.
Parallel mode: none, using 1 thread.
Root relaxation solution time = 1.60 sec. (1638.37 ticks)

        Nodes                                         Cuts/
   Node  Left     Objective  IInf  Best Integer    Best Bound    ItCnt     Gap

      0     0        0.0000  1243                      0.0000     5154         
      0     0        0.0000   642                    Cuts: 10    10813         
      0     0        0.0000   487                    Cuts: 33    14456         
      0     0        0.0000   936                    Cuts: 25    20038         
      0     0        0.0000   338                     Cuts: 2    22153         
      0     0        0.0000   298                    Cuts: 11    23565         
      0     0        0.0000  1480                    Cuts: 62    31977         
      0     2        0.0000   280                      0.0000    31977         
Elapsed time = 103.53 sec. (110251.84 ticks, tree = 0.01 MB, solutions = 0)
      1     3        0.0000   584                      0.0000    43119         
      2     4        0.0000   307                      0.0000    43969         
      3     5        0.0000   461                      0.0000    50000         
      4     6        0.0000   301                      0.0000    50325         
      5     7        0.0000   324                      0.0000    55200         
      6     8        0.0000   318                      0.0000    57917         
      7     9        0.0000   318                      0.0000    62628         
      8    10        0.0000   319                      0.0000    62885         
      9    11        0.0000   633                      0.0000    68933         
     10    12        0.0000   319                      0.0000    69438         
Elapsed time = 121.74 sec. (128624.15 ticks, tree = 0.12 MB, solutions = 0)
     11    13        0.0000   390                      0.0000    73100         
     12    14        0.0000   488                      0.0000    77836         
     13    15        0.0000   361                      0.0000    83146         
     14    16        0.0000   330                      0.0000    84677         
     16    18        0.0000   297                      0.0000    96240         
     17    19        0.0000   916                      0.0000   102914         
     18    20        0.0000   715                      0.0000   104156         
     20    22        0.0000   451                      0.0000   114814         
     22    24        0.0000   309                      0.0000   124077         
     24    26        0.0000   343                      0.0000   135786         
Elapsed time = 146.32 sec. (153981.52 ticks, tree = 0.21 MB, solutions = 0)
     26    28        0.0000   861                      0.0000   143824         
     27    29        0.0000   362                      0.0000   144991         
     28    30        0.0000   936                      0.0000   154848         
     30    32        0.0000   348                      0.0000   159571         
     31    33        0.0000   320                      0.0000   160850         
     32    34        0.0000   420                      0.0000   168271         
     34    36        0.0000   306                      0.0000   172198         
     35    37        0.0000   812                      0.0000   179917         
     37    39        0.0000   296                      0.0000   184490         
     39    41        0.0000   294                      0.0000   188732         
Elapsed time = 161.30 sec. (168758.58 ticks, tree = 0.49 MB, solutions = 0)
     40    42        0.0000   357                      0.0000   194219         
     43    45        0.0000   294                      0.0000   194991         
     44    46        0.0000   615                      0.0000   197739         
     46    48        0.0000   682                      0.0000   209446         
     48    50        0.0000   421                      0.0000   213964         
     50    52        0.0000   446                      0.0000   218167         
     52    54        0.0000   671                      0.0000   227952         
     54    56        0.0000   379                      0.0000   236344         
     55    57        0.0000   872                      0.0000   245729         
     57    59        0.0000   365                      0.0000   247785         
Elapsed time = 180.45 sec. (186912.46 ticks, tree = 0.79 MB, solutions = 0)
     59    61        0.0000   344                      0.0000   251539         
     62    64        0.0000   378                      0.0000   260802         
     65    67        0.0000   321                      0.0000   262463         
     68    70        0.0000   339                      0.0000   269103         
     70    72        0.0000   347                      0.0000   273989         
     72    74        0.0000   433                      0.0000   278200         
     75    77        0.0000   321                      0.0000   279830         
     77    79        0.0000   312                      0.0000   285938         
     80    82        0.0000   315                      0.0000   287594         
     82    84        0.0000   314                      0.0000   291603         
Elapsed time = 193.94 sec. (199797.43 ticks, tree = 1.21 MB, solutions = 0)
     84    86        0.0000   353                      0.0000   296708         
     87    89        0.0000   289                      0.0000   300253         
     88    90        0.0000   558                      0.0000   309639         
     90    92        0.0000   303                      0.0000   314345         
     92    94        0.0000   483                      0.0000   321461         
     94    96        0.0000   505                      0.0000   327471         
     97    99        0.0000   272                      0.0000   335449         
     98   100        0.0000   286                      0.0000   342316         
    100   102        0.0000   595                      0.0000   351052         
    102   104        0.0000   268                      0.0000   356769         
Elapsed time = 217.68 sec. (223707.37 ticks, tree = 1.45 MB, solutions = 0)
    104   106        0.0000   277                      0.0000   367969         
    107   109        0.0000   283                      0.0000   370799         
    109   111        0.0000   462                      0.0000   392566         
    111   113        0.0000   625                      0.0000   407850         
    113   115        0.0000   743                      0.0000   415975         
    115   117        0.0000   751                      0.0000   426964         
    118   120        0.0000   493                      0.0000   431666         
    120   122        0.0000   489                      0.0000   440884         
    123   123    infeasible                            0.0000   484530         
    125   125        0.0000   483                      0.0000   489318         
Elapsed time = 247.34 sec. (250454.17 ticks, tree = 1.51 MB, solutions = 0)
    127   127        0.0000   408                      0.0000   490363         
    128   128        0.0000   423                      0.0000   494819         
    130   130        0.0000   432                      0.0000   499764         
    132   132        0.0000   344                      0.0000   502654         
    133   133        0.0000   391                      0.0000   510208         
    135   135        0.0000   406                      0.0000   521777         
    137   137        0.0000   572                      0.0000   532326         
    138   138        0.0000   360                      0.0000   540835         
    139   139        0.0000   418                      0.0000   549466         
    142   142        0.0000   363                      0.0000   559814         
Elapsed time = 272.32 sec. (275582.36 ticks, tree = 1.68 MB, solutions = 0)
    144   144        0.0000   359                      0.0000   579959         
    146   146        0.0000   438                      0.0000   589843         
    147   147        0.0000   330                      0.0000   595630         
    148   148        0.0000   411                      0.0000   603697         
    149   149        0.0000   320                      0.0000   609563         
    150   150        0.0000   410                      0.0000   616436         
    152   150    infeasible                            0.0000   624160         
    154   152        0.0000   388                      0.0000   630217         
    156   154        0.0000   487                      0.0000   641756         
    158   156        0.0000   382                      0.0000   647339         
Elapsed time = 298.02 sec. (301148.07 ticks, tree = 1.79 MB, solutions = 0)
    160   158        0.0000   366                      0.0000   664936         
    162   160        0.0000   365                      0.0000   672640         
    164   162        0.0000   319                      0.0000   681668         
    166   164        0.0000   422                      0.0000   689582         
    168   166        0.0000   487                      0.0000   709325         
    170   168        0.0000   684                      0.0000   725735         
    172   170        0.0000   693                      0.0000   738865         
    174   172        0.0000   523                      0.0000   759733         
    176   174        0.0000   573                      0.0000   773017         
    178   176        0.0000   489                      0.0000   805416         
Elapsed time = 328.09 sec. (328439.00 ticks, tree = 1.88 MB, solutions = 0)
    180   178        0.0000   430                      0.0000   811792         
    182   180        0.0000   293                      0.0000   823303         
    184   182        0.0000   308                      0.0000   838163         
    186   184        0.0000   273                      0.0000   851503         
    189   187        0.0000   407                      0.0000   869441         
    191   189        0.0000   554                      0.0000   883897         
    196   192        0.0000   356                      0.0000   908599         
    197   193        0.0000   416                      0.0000   931304         
    200   196        0.0000   358                      0.0000   939781         
    203   199        0.0000   335                      0.0000   956940         
Elapsed time = 382.43 sec. (381738.66 ticks, tree = 2.05 MB, solutions = 0)
    205   201        0.0000   295                      0.0000   972764         
    206   200    infeasible                            0.0000   995856         
    208   202        0.0000   563                      0.0000  1010079         
    212   206        0.0000   439                      0.0000  1030929         
    215   209        0.0000   284                      0.0000  1042879         
    217   211        0.0000   283                      0.0000  1054394         
    218   210    infeasible                            0.0000  1071478         
    220   212        0.0000   532                      0.0000  1080205         
    226   218        0.0000   581                      0.0000  1136479         
    230   222        0.0000   534                      0.0000  1190146         
Elapsed time = 434.55 sec. (431826.00 ticks, tree = 2.15 MB, solutions = 0)
    235   227        0.0000   393                      0.0000  1230207         
    239   231        0.0000   414                      0.0000  1278184         
    244   236        0.0000   605                      0.0000  1335584         
    250   242        0.0000   497                      0.0000  1378669         
    257   247        0.0000   499                      0.0000  1418819         
    263   247        0.0000   536                      0.0000  1468885         
    269   247        0.0000   562                      0.0000  1523817         
    274   246    infeasible                            0.0000  1580860         
    280   246    infeasible                            0.0000  1640744         
    286   246    infeasible                            0.0000  1691096         
Elapsed time = 487.81 sec. (473477.21 ticks, tree = 2.23 MB, solutions = 0)
    292   248    infeasible                            0.0000  1749850         
    300   252    infeasible                            0.0000  1798160         
    307   253        0.0000   389                      0.0000  1857263         
    316   252    infeasible                            0.0000  1912427         
    322   252        0.0000   339                      0.0000  1950391         
    330   260        0.0000   664                      0.0000  1997594         
    336   266        0.0000   585                      0.0000  2033769         
    340   270        0.0000   586                      0.0000  2056982         
    346   276        0.0000   691                      0.0000  2094036         
    352   282        0.0000   632                      0.0000  2137596         
Elapsed time = 555.48 sec. (529566.25 ticks, tree = 2.35 MB, solutions = 0)
    360   290        0.0000   494                      0.0000  2198848         
    366   296        0.0000   715                      0.0000  2241314         
    374   304        0.0000   639                      0.0000  2281935         
    380   310        0.0000   671                      0.0000  2312269         
    383   313        0.0000   487                      0.0000  2352571         

Clique cuts applied:  51
Zero-half cuts applied:  24
Gomory fractional cuts applied:  1

Root node processing (before b&c):
  Real time             =  103.45 sec. (110204.88 ticks)
Sequential b&c:
  Real time             =  496.55 sec. (458456.63 ticks)
                          ------------
Total (root+branch&cut) =  600.00 sec. (568661.50 ticks)
Primal:	1
Dual:	299
Status:	Feasible
Time:	600.052
Sequence:
	0
